c Generated map
c Size: 9 * 9, weights in range: 1 to 10, walls: True, with ratio 0.05
c dim 4 of 8
c
p sp 81 129
c graph contains 81 nodes and 129 arcs
c
a 1 10 8
a 10 1 8
a 1 2 3
a 2 1 3
a 2 11 2
a 11 2 2
a 2 3 2
a 3 2 2
a 3 12 7
a 12 3 7
a 3 4 1
a 4 3 1
a 4 13 9
a 13 4 9
a 4 5 3
a 5 4 3
a 5 14 7
a 14 5 7
a 5 6 3
a 6 5 3
a 6 15 5
a 15 6 5
a 6 7 2
a 7 6 2
a 7 16 7
a 16 7 7
a 7 8 2
a 8 7 2
a 8 17 10
a 17 8 10
a 8 9 5
a 9 8 5
a 9 18 10
a 18 9 10
a 10 19 2
a 19 10 2
a 10 11 7
a 11 10 7
a 11 20 6
a 20 11 6
a 11 12 6
a 12 11 6
a 12 21 3
a 21 12 3
a 12 13 6
a 13 12 6
a 13 22 4
a 22 13 4
a 13 14 5
a 14 13 5
a 14 23 1
a 23 14 1
a 14 15 5
a 15 14 5
a 15 24 9
a 24 15 9
a 15 16 10
a 16 15 10
a 16 17 6
a 17 16 6
a 17 18 10
a 18 17 10
a 18 27 8
a 27 18 8
a 19 28 6
a 28 19 6
a 19 20 5
a 20 19 5
a 20 29 1
a 29 20 1
a 20 21 3
a 21 20 3
a 21 22 6
a 22 21 6
a 22 31 10
a 31 22 10
a 22 23 10
a 23 22 10
a 23 32 10
a 32 23 10
a 23 24 7
a 24 23 7
a 24 33 9
a 33 24 9
a 27 36 4
a 36 27 4
a 28 37 5
a 37 28 5
a 28 29 6
a 29 28 6
a 29 38 2
a 38 29 2
a 31 40 3
a 40 31 3
a 31 32 3
a 32 31 3
a 32 41 10
a 41 32 10
a 32 33 8
a 33 32 8
a 33 42 5
a 42 33 5
a 33 34 1
a 34 33 1
a 34 43 6
a 43 34 6
a 34 35 9
a 35 34 9
a 35 44 4
a 44 35 4
a 35 36 9
a 36 35 9
a 36 45 3
a 45 36 3
a 37 46 6
a 46 37 6
a 37 38 1
a 38 37 1
a 38 47 8
a 47 38 8
a 38 39 1
a 39 38 1
a 39 48 9
a 48 39 9
a 39 40 2
a 40 39 2
a 40 49 2
a 49 40 2
a 40 41 8
a 41 40 8
a 41 50 7
a 50 41 7
a 41 42 7
a 42 41 7
a 42 51 2
a 51 42 2
a 42 43 1
a 43 42 1
a 43 52 7
a 52 43 7
a 43 44 7
a 44 43 7
a 44 53 2
a 53 44 2
a 44 45 4
a 45 44 4
a 45 54 6
a 54 45 6
a 46 55 8
a 55 46 8
a 46 47 1
a 47 46 1
a 47 56 7
a 56 47 7
a 47 48 4
a 48 47 4
a 48 57 10
a 57 48 10
a 48 49 10
a 49 48 10
a 49 58 9
a 58 49 9
a 49 50 9
a 50 49 9
a 50 59 5
a 59 50 5
a 50 51 6
a 51 50 6
a 51 60 9
a 60 51 9
a 51 52 5
a 52 51 5
a 52 53 3
a 53 52 3
a 53 62 6
a 62 53 6
a 53 54 9
a 54 53 9
a 54 63 5
a 63 54 5
a 55 64 9
a 64 55 9
a 55 56 1
a 56 55 1
a 56 65 2
a 65 56 2
a 56 57 10
a 57 56 10
a 57 66 8
a 66 57 8
a 57 58 5
a 58 57 5
a 58 67 4
a 67 58 4
a 58 59 3
a 59 58 3
a 59 68 3
a 68 59 3
a 59 60 10
a 60 59 10
a 60 69 2
a 69 60 2
a 62 71 4
a 71 62 4
a 62 63 10
a 63 62 10
a 63 72 7
a 72 63 7
a 64 73 7
a 73 64 7
a 64 65 10
a 65 64 10
a 65 74 2
a 74 65 2
a 65 66 9
a 66 65 9
a 66 75 2
a 75 66 2
a 66 67 10
a 67 66 10
a 67 76 10
a 76 67 10
a 67 68 8
a 68 67 8
a 68 77 1
a 77 68 1
a 68 69 10
a 69 68 10
a 69 78 4
a 78 69 4
a 69 70 7
a 70 69 7
a 70 79 1
a 79 70 1
a 70 71 1
a 71 70 1
a 71 80 6
a 80 71 6
a 71 72 4
a 72 71 4
a 72 81 2
a 81 72 2
a 73 74 2
a 74 73 2
a 74 75 4
a 75 74 4
a 75 76 1
a 76 75 1
a 76 77 3
a 77 76 3
a 77 78 1
a 78 77 1
a 78 79 5
a 79 78 5
a 79 80 9
a 80 79 9
a 80 81 3
a 81 80 3
